NAME PortOpt_n20_m8_inst_0
ROWS
 N  OBJ
 E  budget  
 L  return  
 L  uncertain_risk
 L  fixed_risk
COLUMNS
    asset[0]  budget    1
    asset[0]  return    -3.5645250037164118e+00
    asset[1]  budget    1
    asset[1]  return    -4.0374538089230034e+00
    asset[2]  budget    1
    asset[2]  return    -3.5086834799284401e+00
    asset[3]  budget    1
    asset[3]  return    -2.5020171693319373e+00
    asset[4]  budget    1
    asset[4]  return    -1.5329813696327090e+00
    asset[5]  budget    1
    asset[5]  return    -3.2641005990665981e+00
    asset[6]  budget    1
    asset[6]  return    -3.9157585278567253e+00
    asset[7]  budget    1
    asset[7]  return    -4.4254500781459143e+00
    asset[8]  budget    1
    asset[8]  return    -2.2378094101788433e+00
    asset[9]  budget    1
    asset[9]  return    -4.4731641952886276e+00
    asset[10]  budget    1
    asset[10]  return    -4.0849888239674890e+00
    asset[11]  budget    1
    asset[11]  return    -3.8579355956684727e+00
    asset[12]  budget    1
    asset[12]  return    -1.6596688323552951e+00
    asset[13]  budget    1
    asset[13]  return    -1.2176606952062126e+00
    asset[14]  budget    1
    asset[14]  return    -3.4183034421105916e+00
    asset[15]  budget    1
    asset[15]  return    -1.8040755142659886e+00
    asset[16]  budget    1
    asset[16]  return    -2.2386564028716243e+00
    asset[17]  budget    1
    asset[17]  return    -1.0607299778632333e+00
    asset[18]  budget    1
    asset[18]  return    -2.5793136965341708e+00
    asset[19]  budget    1
    asset[19]  return    -1.1128968090399978e+00
    return_var  OBJ       -1
    return_var  return    1
    uncertain_risk_var  OBJ       1
    uncertain_risk_var  uncertain_risk  -1
    fixed_risk_var  OBJ       1
    fixed_risk_var  fixed_risk  -1
RHS
    RHS1      budget    1
BOUNDS
QCMATRIX   uncertain_risk
    asset[0]  asset[0]  2.7097287268582404e-02
    asset[0]  asset[1]  -1.6626644779695970e-02
    asset[1]  asset[0]  -1.6626644779695970e-02
    asset[0]  asset[2]  1.0360270704246558e-02
    asset[2]  asset[0]  1.0360270704246558e-02
    asset[0]  asset[3]  -1.9843816987204943e-02
    asset[3]  asset[0]  -1.9843816987204943e-02
    asset[0]  asset[4]  -3.2589912040714643e-03
    asset[4]  asset[0]  -3.2589912040714643e-03
    asset[0]  asset[5]  2.3546161991890351e-02
    asset[5]  asset[0]  2.3546161991890351e-02
    asset[0]  asset[6]  3.8038529434621229e-02
    asset[6]  asset[0]  3.8038529434621229e-02
    asset[0]  asset[7]  1.2581774879663122e-02
    asset[7]  asset[0]  1.2581774879663122e-02
    asset[0]  asset[8]  -1.3707413177387209e-02
    asset[8]  asset[0]  -1.3707413177387209e-02
    asset[0]  asset[9]  -1.3121158749031369e-02
    asset[9]  asset[0]  -1.3121158749031369e-02
    asset[0]  asset[10]  2.1574393420598845e-02
    asset[10]  asset[0]  2.1574393420598845e-02
    asset[0]  asset[11]  -8.9678991623915935e-04
    asset[11]  asset[0]  -8.9678991623915935e-04
    asset[0]  asset[12]  2.5976987521168837e-02
    asset[12]  asset[0]  2.5976987521168837e-02
    asset[0]  asset[13]  -1.9317395752378509e-03
    asset[13]  asset[0]  -1.9317395752378509e-03
    asset[0]  asset[14]  -4.2162340113736530e-03
    asset[14]  asset[0]  -4.2162340113736530e-03
    asset[0]  asset[15]  -1.2648299289513696e-02
    asset[15]  asset[0]  -1.2648299289513696e-02
    asset[0]  asset[16]  7.4972752158587869e-03
    asset[16]  asset[0]  7.4972752158587869e-03
    asset[0]  asset[17]  -7.0555521206536222e-03
    asset[17]  asset[0]  -7.0555521206536222e-03
    asset[0]  asset[18]  5.0806632365648016e-03
    asset[18]  asset[0]  5.0806632365648016e-03
    asset[0]  asset[19]  -2.5334499903443095e-02
    asset[19]  asset[0]  -2.5334499903443095e-02
    asset[1]  asset[1]  2.7364465321235449e-02
    asset[1]  asset[2]  9.2476098883668145e-03
    asset[2]  asset[1]  9.2476098883668145e-03
    asset[1]  asset[3]  1.9945154521196724e-02
    asset[3]  asset[1]  1.9945154521196724e-02
    asset[1]  asset[4]  2.1777928666424458e-03
    asset[4]  asset[1]  2.1777928666424458e-03
    asset[1]  asset[5]  -1.8068706620900155e-02
    asset[5]  asset[1]  -1.8068706620900155e-02
    asset[1]  asset[6]  -2.5462230839732918e-02
    asset[6]  asset[1]  -2.5462230839732918e-02
    asset[1]  asset[7]  7.0891429842681666e-03
    asset[7]  asset[1]  7.0891429842681666e-03
    asset[1]  asset[8]  7.4254125623480528e-03
    asset[8]  asset[1]  7.4254125623480528e-03
    asset[1]  asset[9]  -6.0741214064908705e-03
    asset[9]  asset[1]  -6.0741214064908705e-03
    asset[1]  asset[10]  1.2098836518028851e-02
    asset[10]  asset[1]  1.2098836518028851e-02
    asset[1]  asset[11]  -1.0053219340997752e-03
    asset[11]  asset[1]  -1.0053219340997752e-03
    asset[1]  asset[12]  -1.2279231071188258e-02
    asset[12]  asset[1]  -1.2279231071188258e-02
    asset[1]  asset[13]  -2.1794777046559824e-03
    asset[13]  asset[1]  -2.1794777046559824e-03
    asset[1]  asset[14]  9.3439774662177986e-03
    asset[14]  asset[1]  9.3439774662177986e-03
    asset[1]  asset[15]  -1.4492953191112535e-02
    asset[15]  asset[1]  -1.4492953191112535e-02
    asset[1]  asset[16]  1.0992192904619778e-02
    asset[16]  asset[1]  1.0992192904619778e-02
    asset[1]  asset[17]  2.3206105267001391e-03
    asset[17]  asset[1]  2.3206105267001391e-03
    asset[1]  asset[18]  6.2762758850150417e-03
    asset[18]  asset[1]  6.2762758850150417e-03
    asset[1]  asset[19]  2.3894794226414169e-02
    asset[19]  asset[1]  2.3894794226414169e-02
    asset[2]  asset[2]  2.2023157949215715e-02
    asset[2]  asset[3]  1.3189752705183902e-03
    asset[3]  asset[2]  1.3189752705183902e-03
    asset[2]  asset[4]  -6.0888196159335243e-03
    asset[4]  asset[2]  -6.0888196159335243e-03
    asset[2]  asset[5]  1.4006984513683388e-02
    asset[5]  asset[2]  1.4006984513683388e-02
    asset[2]  asset[6]  1.3591987560183934e-02
    asset[6]  asset[2]  1.3591987560183934e-02
    asset[2]  asset[7]  1.7253215665537038e-02
    asset[7]  asset[2]  1.7253215665537038e-02
    asset[2]  asset[8]  -6.1724636897345364e-03
    asset[8]  asset[2]  -6.1724636897345364e-03
    asset[2]  asset[9]  -1.7962370329820464e-02
    asset[9]  asset[2]  -1.7962370329820464e-02
    asset[2]  asset[10]  3.5599119791050814e-02
    asset[10]  asset[2]  3.5599119791050814e-02
    asset[2]  asset[11]  6.2645609779410421e-03
    asset[11]  asset[2]  6.2645609779410421e-03
    asset[2]  asset[12]  7.9858255894808272e-03
    asset[12]  asset[2]  7.9858255894808272e-03
    asset[2]  asset[13]  1.9157684556325007e-03
    asset[13]  asset[2]  1.9157684556325007e-03
    asset[2]  asset[14]  2.4204629535916258e-03
    asset[14]  asset[2]  2.4204629535916258e-03
    asset[2]  asset[15]  -2.5023740670628777e-02
    asset[15]  asset[2]  -2.5023740670628777e-02
    asset[2]  asset[16]  1.7124138908980423e-02
    asset[16]  asset[2]  1.7124138908980423e-02
    asset[2]  asset[17]  4.2346075901318605e-03
    asset[17]  asset[2]  4.2346075901318605e-03
    asset[2]  asset[18]  1.7041625441052810e-02
    asset[18]  asset[2]  1.7041625441052810e-02
    asset[2]  asset[19]  -8.8092270966560870e-03
    asset[19]  asset[2]  -8.8092270966560870e-03
    asset[3]  asset[3]  4.8516885630416624e-02
    asset[3]  asset[4]  -6.6718774385351714e-03
    asset[4]  asset[3]  -6.6718774385351714e-03
    asset[3]  asset[5]  7.2729169380012131e-03
    asset[5]  asset[3]  7.2729169380012131e-03
    asset[3]  asset[6]  -1.6399710672516714e-02
    asset[6]  asset[3]  -1.6399710672516714e-02
    asset[3]  asset[7]  -3.2521620508970252e-03
    asset[7]  asset[3]  -3.2521620508970252e-03
    asset[3]  asset[8]  3.4253877865659411e-03
    asset[8]  asset[3]  3.4253877865659411e-03
    asset[3]  asset[9]  3.1422311580960122e-02
    asset[9]  asset[3]  3.1422311580960122e-02
    asset[3]  asset[10]  -2.1376614644252095e-02
    asset[10]  asset[3]  -2.1376614644252095e-02
    asset[3]  asset[11]  -5.4312236122232701e-03
    asset[11]  asset[3]  -5.4312236122232701e-03
    asset[3]  asset[12]  -2.4483223946785104e-02
    asset[12]  asset[3]  -2.4483223946785104e-02
    asset[3]  asset[13]  1.0201656915861277e-03
    asset[13]  asset[3]  1.0201656915861277e-03
    asset[3]  asset[14]  8.8562868854253768e-03
    asset[14]  asset[3]  8.8562868854253768e-03
    asset[3]  asset[15]  4.0611614585903018e-03
    asset[15]  asset[3]  4.0611614585903018e-03
    asset[3]  asset[16]  9.4644734543820313e-03
    asset[16]  asset[3]  9.4644734543820313e-03
    asset[3]  asset[17]  1.4635285119222059e-02
    asset[17]  asset[3]  1.4635285119222059e-02
    asset[3]  asset[18]  -2.1572846518781036e-04
    asset[18]  asset[3]  -2.1572846518781036e-04
    asset[3]  asset[19]  1.5609543436927362e-02
    asset[19]  asset[3]  1.5609543436927362e-02
    asset[4]  asset[4]  1.5486562399706768e-02
    asset[4]  asset[5]  -2.4476181629732745e-02
    asset[5]  asset[4]  -2.4476181629732745e-02
    asset[4]  asset[6]  -1.3383979322021337e-02
    asset[6]  asset[4]  -1.3383979322021337e-02
    asset[4]  asset[7]  -1.3340144915889051e-03
    asset[7]  asset[4]  -1.3340144915889051e-03
    asset[4]  asset[8]  -2.6145555218994761e-03
    asset[8]  asset[4]  -2.6145555218994761e-03
    asset[4]  asset[9]  -6.6760139482179952e-03
    asset[9]  asset[4]  -6.6760139482179952e-03
    asset[4]  asset[10]  -7.7723188105707462e-03
    asset[10]  asset[4]  -7.7723188105707462e-03
    asset[4]  asset[11]  -2.1551823936613604e-02
    asset[11]  asset[4]  -2.1551823936613604e-02
    asset[4]  asset[12]  9.2839911812808446e-03
    asset[12]  asset[4]  9.2839911812808446e-03
    asset[4]  asset[13]  -1.3670928052174607e-02
    asset[13]  asset[4]  -1.3670928052174607e-02
    asset[4]  asset[14]  -1.8608117990361820e-04
    asset[14]  asset[4]  -1.8608117990361820e-04
    asset[4]  asset[15]  6.2552335883508704e-03
    asset[15]  asset[4]  6.2552335883508704e-03
    asset[4]  asset[16]  -7.3869802240729226e-04
    asset[16]  asset[4]  -7.3869802240729226e-04
    asset[4]  asset[17]  -1.6319465495204785e-02
    asset[17]  asset[4]  -1.6319465495204785e-02
    asset[4]  asset[18]  -1.5929935813222482e-02
    asset[18]  asset[4]  -1.5929935813222482e-02
    asset[4]  asset[19]  2.0883184718501396e-02
    asset[19]  asset[4]  2.0883184718501396e-02
    asset[5]  asset[5]  6.4155300926320033e-02
    asset[5]  asset[6]  4.6887700274949359e-02
    asset[6]  asset[5]  4.6887700274949359e-02
    asset[5]  asset[7]  9.1690667935507147e-03
    asset[7]  asset[5]  9.1690667935507147e-03
    asset[5]  asset[8]  -6.9446210422141295e-03
    asset[8]  asset[5]  -6.9446210422141295e-03
    asset[5]  asset[9]  2.0126166959952153e-02
    asset[9]  asset[5]  2.0126166959952153e-02
    asset[5]  asset[10]  1.0134143664400968e-02
    asset[10]  asset[5]  1.0134143664400968e-02
    asset[5]  asset[11]  2.2488996335063207e-02
    asset[11]  asset[5]  2.2488996335063207e-02
    asset[5]  asset[12]  7.4744390239044022e-03
    asset[12]  asset[5]  7.4744390239044022e-03
    asset[5]  asset[13]  1.7655162553310413e-02
    asset[13]  asset[5]  1.7655162553310413e-02
    asset[5]  asset[14]  -2.2128270913376585e-03
    asset[14]  asset[5]  -2.2128270913376585e-03
    asset[5]  asset[15]  -7.6198146656292279e-03
    asset[15]  asset[5]  -7.6198146656292279e-03
    asset[5]  asset[16]  9.0725025831368059e-03
    asset[16]  asset[5]  9.0725025831368059e-03
    asset[5]  asset[17]  2.4564524496626727e-02
    asset[17]  asset[5]  2.4564524496626727e-02
    asset[5]  asset[18]  1.5788718131278492e-02
    asset[18]  asset[5]  1.5788718131278492e-02
    asset[5]  asset[19]  -4.8312243884412423e-02
    asset[19]  asset[5]  -4.8312243884412423e-02
    asset[6]  asset[6]  6.5610057502280092e-02
    asset[6]  asset[7]  1.6511073951461491e-02
    asset[7]  asset[6]  1.6511073951461491e-02
    asset[6]  asset[8]  -1.9877939407241443e-02
    asset[8]  asset[6]  -1.9877939407241443e-02
    asset[6]  asset[9]  -4.2658758637263688e-03
    asset[9]  asset[6]  -4.2658758637263688e-03
    asset[6]  asset[10]  2.3204317362335324e-02
    asset[10]  asset[6]  2.3204317362335324e-02
    asset[6]  asset[11]  6.7194416204646012e-03
    asset[11]  asset[6]  6.7194416204646012e-03
    asset[6]  asset[12]  2.7460450312643270e-02
    asset[12]  asset[6]  2.7460450312643270e-02
    asset[6]  asset[13]  7.8576224135197819e-04
    asset[13]  asset[6]  7.8576224135197819e-04
    asset[6]  asset[14]  -3.4356457431572660e-03
    asset[14]  asset[6]  -3.4356457431572660e-03
    asset[6]  asset[15]  -1.7232845828256956e-02
    asset[15]  asset[6]  -1.7232845828256956e-02
    asset[6]  asset[16]  1.1144422340665379e-02
    asset[16]  asset[6]  1.1144422340665379e-02
    asset[6]  asset[17]  -6.1549919215315588e-03
    asset[17]  asset[6]  -6.1549919215315588e-03
    asset[6]  asset[18]  1.2472091923452975e-02
    asset[18]  asset[6]  1.2472091923452975e-02
    asset[6]  asset[19]  -4.4581953313790543e-02
    asset[19]  asset[6]  -4.4581953313790543e-02
    asset[7]  asset[7]  2.8226273846529409e-02
    asset[7]  asset[8]  -1.7776467268001723e-03
    asset[8]  asset[7]  -1.7776467268001723e-03
    asset[7]  asset[9]  -1.2140454466785340e-02
    asset[9]  asset[7]  -1.2140454466785340e-02
    asset[7]  asset[10]  2.9425905560071689e-02
    asset[10]  asset[7]  2.9425905560071689e-02
    asset[7]  asset[11]  5.3783258058706287e-03
    asset[11]  asset[7]  5.3783258058706287e-03
    asset[7]  asset[12]  2.5136326541952206e-02
    asset[12]  asset[7]  2.5136326541952206e-02
    asset[7]  asset[13]  -7.5182223348161815e-03
    asset[13]  asset[7]  -7.5182223348161815e-03
    asset[7]  asset[14]  1.2019669271135172e-02
    asset[14]  asset[7]  1.2019669271135172e-02
    asset[7]  asset[15]  -2.8035971268283954e-02
    asset[15]  asset[7]  -2.8035971268283954e-02
    asset[7]  asset[16]  1.8281248583225780e-02
    asset[16]  asset[7]  1.8281248583225780e-02
    asset[7]  asset[17]  -9.3476126042236589e-03
    asset[17]  asset[7]  -9.3476126042236589e-03
    asset[7]  asset[18]  9.3070926850685725e-03
    asset[18]  asset[7]  9.3070926850685725e-03
    asset[7]  asset[19]  -2.6281945283039322e-03
    asset[19]  asset[7]  -2.6281945283039322e-03
    asset[8]  asset[8]  1.9108508961424214e-02
    asset[8]  asset[9]  1.0873409628187324e-02
    asset[9]  asset[8]  1.0873409628187324e-02
    asset[8]  asset[10]  -7.2281241728469250e-03
    asset[10]  asset[8]  -7.2281241728469250e-03
    asset[8]  asset[11]  1.5978157348339350e-02
    asset[11]  asset[8]  1.5978157348339350e-02
    asset[8]  asset[12]  -9.7380583341094371e-03
    asset[12]  asset[8]  -9.7380583341094371e-03
    asset[8]  asset[13]  8.9014492991030293e-03
    asset[13]  asset[8]  8.9014492991030293e-03
    asset[8]  asset[14]  6.8777144594897701e-03
    asset[14]  asset[8]  6.8777144594897701e-03
    asset[8]  asset[15]  1.4568370609197524e-03
    asset[15]  asset[8]  1.4568370609197524e-03
    asset[8]  asset[16]  -6.1146366669300560e-03
    asset[16]  asset[8]  -6.1146366669300560e-03
    asset[8]  asset[17]  9.5127030510370348e-03
    asset[17]  asset[8]  9.5127030510370348e-03
    asset[8]  asset[18]  -1.1260005346077370e-03
    asset[18]  asset[8]  -1.1260005346077370e-03
    asset[8]  asset[19]  5.8307376617268928e-03
    asset[19]  asset[8]  5.8307376617268928e-03
    asset[9]  asset[9]  5.7519849271627232e-02
    asset[9]  asset[10]  -5.2103899091999827e-02
    asset[10]  asset[9]  -5.2103899091999827e-02
    asset[9]  asset[11]  2.8133067818298166e-04
    asset[11]  asset[9]  2.8133067818298166e-04
    asset[9]  asset[12]  -1.4021355832847915e-02
    asset[12]  asset[9]  -1.4021355832847915e-02
    asset[9]  asset[13]  5.2954388038718610e-03
    asset[13]  asset[9]  5.2954388038718610e-03
    asset[9]  asset[14]  6.5615134348964875e-03
    asset[14]  asset[9]  6.5615134348964875e-03
    asset[9]  asset[15]  2.7261908850520003e-02
    asset[15]  asset[9]  2.7261908850520003e-02
    asset[9]  asset[16]  -6.1963287490657938e-03
    asset[16]  asset[9]  -6.1963287490657938e-03
    asset[9]  asset[17]  1.4447029768809776e-02
    asset[17]  asset[9]  1.4447029768809776e-02
    asset[9]  asset[18]  -1.9365522012478792e-02
    asset[18]  asset[9]  -1.9365522012478792e-02
    asset[9]  asset[19]  -5.1064676870964305e-04
    asset[19]  asset[9]  -5.1064676870964305e-04
    asset[10]  asset[10]  7.5321214808739212e-02
    asset[10]  asset[11]  1.8209071543040242e-02
    asset[11]  asset[10]  1.8209071543040242e-02
    asset[10]  asset[12]  1.8097884762631612e-02
    asset[12]  asset[10]  1.8097884762631612e-02
    asset[10]  asset[13]  5.0412650997206879e-03
    asset[13]  asset[10]  5.0412650997206879e-03
    asset[10]  asset[14]  1.3525453455370388e-03
    asset[14]  asset[10]  1.3525453455370388e-03
    asset[10]  asset[15]  -4.9446302399820299e-02
    asset[15]  asset[10]  -4.9446302399820299e-02
    asset[10]  asset[16]  2.1869695852455052e-02
    asset[16]  asset[10]  2.1869695852455052e-02
    asset[10]  asset[17]  -3.4095256890335763e-04
    asset[17]  asset[10]  -3.4095256890335763e-04
    asset[10]  asset[18]  3.4210696937167738e-02
    asset[18]  asset[10]  3.4210696937167738e-02
    asset[10]  asset[19]  -1.8016882757956643e-02
    asset[19]  asset[10]  -1.8016882757956643e-02
    asset[11]  asset[11]  4.9777807562294059e-02
    asset[11]  asset[12]  -1.2607898439989218e-02
    asset[12]  asset[11]  -1.2607898439989218e-02
    asset[11]  asset[13]  2.2769876938159919e-02
    asset[13]  asset[11]  2.2769876938159919e-02
    asset[11]  asset[14]  4.2002108577902150e-03
    asset[14]  asset[11]  4.2002108577902150e-03
    asset[11]  asset[15]  -1.1848038743118322e-02
    asset[15]  asset[11]  -1.1848038743118322e-02
    asset[11]  asset[16]  -6.2051633892580785e-03
    asset[16]  asset[11]  -6.2051633892580785e-03
    asset[11]  asset[17]  2.2438009011261650e-02
    asset[17]  asset[11]  2.2438009011261650e-02
    asset[11]  asset[18]  2.8093393476805076e-02
    asset[18]  asset[11]  2.8093393476805076e-02
    asset[11]  asset[19]  -2.6999655575686295e-02
    asset[19]  asset[11]  -2.6999655575686295e-02
    asset[12]  asset[12]  4.7754278663586870e-02
    asset[12]  asset[13]  -1.6275170235011925e-02
    asset[13]  asset[12]  -1.6275170235011925e-02
    asset[12]  asset[14]  5.1131550107571481e-03
    asset[14]  asset[12]  5.1131550107571481e-03
    asset[12]  asset[15]  -1.5494492498109502e-02
    asset[15]  asset[12]  -1.5494492498109502e-02
    asset[12]  asset[16]  1.1977767210193047e-02
    asset[16]  asset[12]  1.1977767210193047e-02
    asset[12]  asset[17]  -2.2689403973451476e-02
    asset[17]  asset[12]  -2.2689403973451476e-02
    asset[12]  asset[18]  -8.6459615846969685e-03
    asset[18]  asset[12]  -8.6459615846969685e-03
    asset[12]  asset[19]  -6.3982071194580992e-03
    asset[19]  asset[12]  -6.3982071194580992e-03
    asset[13]  asset[13]  2.0465379063892012e-02
    asset[13]  asset[14]  -4.3317201658620505e-03
    asset[14]  asset[13]  -4.3317201658620505e-03
    asset[13]  asset[15]  2.3861085634620106e-04
    asset[15]  asset[13]  2.3861085634620106e-04
    asset[13]  asset[16]  -5.8631237842252625e-03
    asset[16]  asset[13]  -5.8631237842252625e-03
    asset[13]  asset[17]  2.3375308259145636e-02
    asset[17]  asset[13]  2.3375308259145636e-02
    asset[13]  asset[18]  1.1903386205100775e-02
    asset[18]  asset[13]  1.1903386205100775e-02
    asset[13]  asset[19]  -1.9435664622824422e-02
    asset[19]  asset[13]  -1.9435664622824422e-02
    asset[14]  asset[14]  1.1716913020990660e-02
    asset[14]  asset[15]  -9.7375310753035522e-03
    asset[15]  asset[14]  -9.7375310753035522e-03
    asset[14]  asset[16]  6.9871364332870934e-03
    asset[16]  asset[14]  6.9871364332870934e-03
    asset[14]  asset[17]  -4.2080553073650931e-03
    asset[17]  asset[14]  -4.2080553073650931e-03
    asset[14]  asset[18]  2.4716134661062321e-04
    asset[18]  asset[14]  2.4716134661062321e-04
    asset[14]  asset[19]  8.5528433455021834e-03
    asset[19]  asset[14]  8.5528433455021834e-03
    asset[15]  asset[15]  4.1292674945380782e-02
    asset[15]  asset[16]  -2.0901936721443352e-02
    asset[16]  asset[15]  -2.0901936721443352e-02
    asset[15]  asset[17]  4.2182972915312394e-03
    asset[17]  asset[15]  4.2182972915312394e-03
    asset[15]  asset[18]  -2.2427261249613754e-02
    asset[18]  asset[15]  -2.2427261249613754e-02
    asset[15]  asset[19]  6.9804680315782696e-03
    asset[19]  asset[15]  6.9804680315782696e-03
    asset[16]  asset[16]  1.9842911589005491e-02
    asset[16]  asset[17]  -3.3248729773994370e-03
    asset[17]  asset[16]  -3.3248729773994370e-03
    asset[16]  asset[18]  5.2496645362216255e-03
    asset[18]  asset[16]  5.2496645362216255e-03
    asset[16]  asset[19]  1.7329863273884125e-03
    asset[19]  asset[16]  1.7329863273884125e-03
    asset[17]  asset[17]  3.3681197548593847e-02
    asset[17]  asset[18]  1.2137012288765087e-02
    asset[18]  asset[17]  1.2137012288765087e-02
    asset[17]  asset[19]  -1.7665462987481326e-02
    asset[19]  asset[17]  -1.7665462987481326e-02
    asset[18]  asset[18]  3.2119681562983941e-02
    asset[18]  asset[19]  -1.8799353984649401e-02
    asset[19]  asset[18]  -1.8799353984649401e-02
    asset[19]  asset[19]  5.0279991438847760e-02
QCMATRIX   fixed_risk
    asset[0]  asset[0]  2.7898193415213639e-03
    asset[1]  asset[1]  2.8654441026413203e-03
    asset[2]  asset[2]  2.1808327411486292e-03
    asset[3]  asset[3]  4.2665153038065305e-03
    asset[4]  asset[4]  1.6407680367347081e-03
    asset[5]  asset[5]  6.3180134409031811e-03
    asset[6]  asset[6]  7.4492782245215968e-03
    asset[7]  asset[7]  2.5576038931545723e-03
    asset[8]  asset[8]  1.6877125820962291e-03
    asset[9]  asset[9]  5.7201879447503073e-03
    asset[10]  asset[10]  7.0111915179596465e-03
    asset[11]  asset[11]  4.6475700603711726e-03
    asset[12]  asset[12]  4.8795641695496324e-03
    asset[13]  asset[13]  2.0537180456937135e-03
    asset[14]  asset[14]  1.0085148834619940e-03
    asset[15]  asset[15]  4.0085056798691817e-03
    asset[16]  asset[16]  1.6985631188373776e-03
    asset[17]  asset[17]  3.3433631643393089e-03
    asset[18]  asset[18]  3.1077386726312620e-03
    asset[19]  asset[19]  4.3064270675314126e-03
ENDATA
